c random cnf
p cnf 50 50
36 47 0
15 -44 0
-2 22 0
-2 23 0
-1 48 0
43 46 0
-5 -50 0
-36 39 0
13 -18 0
-11 -31 0
3 -45 0
20 -24 0
-8 -26 0
-1 49 0
15 39 0
-6 12 0
4 33 0
-12 -41 0
-43 -45 0
17 38 0
23 44 0
-2 -48 0
-7 -10 0
11 -36 0
-22 -27 0
2 -18 0
-31 40 0
-7 -38 0
15 41 0
33 37 0
-1 23 0
7 30 0
-18 -26 0
5 10 0
17 41 0
-14 -28 0
20 47 0
-3 33 0
3 35 0
-15 -22 0
-7 -15 0
32 48 0
-9 -16 0
17 27 0
9 -39 0
22 -29 0
6 28 0
-7 -11 0
9 19 0
-8 -29 0
